(benchmark gametime
:status unknown
:logic QF_AUFBV
:extrafuns ((gtAGG__rtDWork  BitVec[32]))
:extrafuns ((gtINDEX69  BitVec[32]))
:extrafuns ((gtINDEX68  BitVec[32]))
:extrafuns ((gtINDEX67  BitVec[32]))
:extrafuns ((gtINDEX66  BitVec[32]))
:extrafuns ((gtINDEX65  BitVec[32]))
:extrafuns ((gtINDEX64  BitVec[32]))
:extrafuns ((gtINDEX63  BitVec[32]))
:extrafuns ((gtINDEX61  BitVec[32]))
:extrafuns ((gtFIELD__bitsForTID0__gtAGG____anonstruct_D_Work_4  Array[32:32]))
:extrafuns ((gtINDEX62  BitVec[32]))
:extrafuns ((gtINDEX59  BitVec[32]))
:extrafuns ((gtINDEX60  BitVec[32]))
:extrafuns ((gtINDEX57  BitVec[32]))
:extrafuns ((gtINDEX58  BitVec[32]))
:extrafuns ((gtINDEX55  BitVec[32]))
:extrafuns ((gtINDEX56  BitVec[32]))
:extrafuns ((gtINDEX53  BitVec[32]))
:extrafuns ((gtINDEX54  BitVec[32]))
:extrafuns ((gtINDEX51  BitVec[32]))
:extrafuns ((gtINDEX52  BitVec[32]))
:extrafuns ((gtINDEX49  BitVec[32]))
:extrafuns ((gtINDEX50  BitVec[32]))
:extrafuns ((gtINDEX47  BitVec[32]))
:extrafuns ((gtINDEX48  BitVec[32]))
:extrafuns ((gtINDEX46  BitVec[32]))
:extrafuns ((gtINDEX45  BitVec[32]))
:extrafuns ((gtINDEX44  BitVec[32]))
:extrafuns ((gtINDEX43  BitVec[32]))
:extrafuns ((gtINDEX42  BitVec[32]))
:extrafuns ((gtINDEX40  BitVec[32]))
:extrafuns ((gtINDEX41  BitVec[32]))
:extrafuns ((gtINDEX38  BitVec[32]))
:extrafuns ((gtINDEX39  BitVec[32]))
:extrafuns ((gtINDEX36  BitVec[32]))
:extrafuns ((gtINDEX37  BitVec[32]))
:extrafuns ((gtINDEX34  BitVec[32]))
:extrafuns ((gtINDEX35  BitVec[32]))
:extrafuns ((gtINDEX32  BitVec[32]))
:extrafuns ((gtINDEX33  BitVec[32]))
:extrafuns ((gtINDEX30  BitVec[32]))
:extrafuns ((gtINDEX31  BitVec[32]))
:extrafuns ((gtINDEX28  BitVec[32]))
:extrafuns ((gtINDEX29  BitVec[32]))
:extrafuns ((gtINDEX27  BitVec[32]))
:extrafuns ((gtINDEX26  BitVec[32]))
:extrafuns ((gtINDEX25  BitVec[32]))
:extrafuns ((gtINDEX23  BitVec[32]))
:extrafuns ((gtINDEX24  BitVec[32]))
:extrafuns ((gtINDEX22  BitVec[32]))
:extrafuns ((gtINDEX21  BitVec[32]))
:extrafuns ((gtINDEX19  BitVec[32]))
:extrafuns ((gtINDEX20  BitVec[32]))
:extrafuns ((gtINDEX18  BitVec[32]))
:extrafuns ((gtINDEX17  BitVec[32]))
:extrafuns ((gtINDEX15  BitVec[32]))
:extrafuns ((gtINDEX16  BitVec[32]))
:extrafuns ((gtINDEX13  BitVec[32]))
:extrafuns ((gtINDEX14  BitVec[32]))
:extrafuns ((gtINDEX11  BitVec[32]))
:extrafuns ((gtINDEX12  BitVec[32]))
:extrafuns ((gtINDEX10  BitVec[32]))
:extrafuns ((gtINDEX9  BitVec[32]))
:extrafuns ((gtINDEX8  BitVec[32]))
:extrafuns ((gtINDEX7  BitVec[32]))
:extrafuns ((gtINDEX6  BitVec[32]))
:extrafuns ((gtINDEX5  BitVec[32]))
:extrafuns ((gtINDEX4  BitVec[32]))
:extrafuns ((gtINDEX3  BitVec[32]))
:extrafuns ((gtINDEX2  BitVec[32]))
:extrafuns ((gtINDEX1  BitVec[32]))
:extrafuns ((gtINDEX0  BitVec[32]))
:extrafuns ((gtFIELD__sh_rst__gtAGG____anonstruct_D_Work_4  Array[32:32]))
:extrafuns ((gtFIELD__sent__gtAGG____anonstruct_D_Work_4  Array[32:32]))
:extrafuns ((gtFIELD__is_Eng__gtAGG____anonstruct_bitsForTID0_5  Array[32:1]))
:extrafuns ((gtFIELD__is_active_Eng__gtAGG____anonstruct_bitsForTID0_5  Array[32:1]))
:extrafuns ((gtFIELD__is_PURI__gtAGG____anonstruct_bitsForTID0_5  Array[32:2]))
:extrafuns ((gtFIELD__is_PURI__gtAGG____anonstruct_bitsForTID0_5_1_  Array[32:2]))
:extrafuns ((gtFIELD__is_active_PURI__gtAGG____anonstruct_bitsForTID0_5  Array[32:1]))
:extrafuns ((gtFIELD__is_active_PVRP__gtAGG____anonstruct_bitsForTID0_5  Array[32:1]))
:extrafuns ((gtFIELD__is_PPVARP__gtAGG____anonstruct_bitsForTID0_5  Array[32:2]))
:extrafuns ((gtFIELD__is_PPVARP__gtAGG____anonstruct_bitsForTID0_5_1_  Array[32:2]))
:extrafuns ((gtFIELD__ARPd__gtAGG____anonstruct_D_Work_4  Array[32:32]))
:extrafuns ((gtFIELD__n_t_b__gtAGG____anonstruct_D_Work_4  Array[32:32]))
:extrafuns ((gtFIELD__temporalCounter_i3__gtAGG____anonstruct_D_Work_4  Array[32:32]))
:extrafuns ((gtFIELD__comm__gtAGG____anonstruct_D_Work_4  Array[32:32]))
:extrafuns ((gtFIELD__is_active_PPVARP__gtAGG____anonstruct_bitsForTID0_5  Array[32:1]))
:extrafuns ((gtFIELD__is_PLRI__gtAGG____anonstruct_bitsForTID0_5  Array[32:2]))
:extrafuns ((gtFIELD__is_PLRI__gtAGG____anonstruct_bitsForTID0_5_1_  Array[32:2]))
:extrafuns ((gtFIELD__is_active_PLRI__gtAGG____anonstruct_bitsForTID0_5  Array[32:1]))
:extrafuns ((sfEvent_  BitVec[32]))
:extrafuns ((gtFIELD__AVId__gtAGG____anonstruct_D_Work_4  Array[32:32]))
:extrafuns ((gtFIELD__n_t__gtAGG____anonstruct_D_Work_4  Array[32:32]))
:extrafuns ((gtFIELD__temporalCounter_i1__gtAGG____anonstruct_D_Work_4_1_  Array[32:32]))
:extrafuns ((gtFIELD__URIex__gtAGG____anonstruct_bitsForTID0_5  Array[32:1]))
:extrafuns ((gtFIELD__is_PAVI__gtAGG____anonstruct_bitsForTID0_5  Array[32:3]))
:extrafuns ((gtFIELD__is_active_PAVI__gtAGG____anonstruct_bitsForTID0_5  Array[32:1]))
:extrafuns ((gtFIELD__temporalCounter_i5__gtAGG____anonstruct_D_Work_4  Array[32:32]))
:extrafuns ((gtFIELD__temporalCounter_i5__gtAGG____anonstruct_D_Work_4_1_  Array[32:32]))
:extrafuns ((gtFIELD__temporalCounter_i4__gtAGG____anonstruct_D_Work_4  Array[32:32]))
:extrafuns ((gtFIELD__temporalCounter_i4__gtAGG____anonstruct_D_Work_4_1_  Array[32:32]))
:extrafuns ((gtFIELD__temporalCounter_i2__gtAGG____anonstruct_D_Work_4  Array[32:32]))
:extrafuns ((gtFIELD__temporalCounter_i1__gtAGG____anonstruct_D_Work_4  Array[32:32]))
:extrapreds ((constraint114 ))
:extrapreds ((constraint113 ))
:extrapreds ((constraint112 ))
:extrapreds ((constraint111 ))
:extrapreds ((constraint110 ))
:extrapreds ((constraint109 ))
:extrapreds ((constraint108 ))
:extrapreds ((constraint107 ))
:extrapreds ((constraint106 ))
:extrapreds ((constraint105 ))
:extrapreds ((constraint104 ))
:extrapreds ((constraint103 ))
:extrapreds ((constraint102 ))
:extrapreds ((constraint101 ))
:extrapreds ((constraint100 ))
:extrapreds ((constraint99 ))
:extrapreds ((constraint98 ))
:extrapreds ((constraint97 ))
:extrapreds ((constraint96 ))
:extrapreds ((constraint95 ))
:extrapreds ((constraint94 ))
:extrapreds ((constraint93 ))
:extrapreds ((constraint92 ))
:extrapreds ((constraint91 ))
:extrapreds ((constraint90 ))
:extrapreds ((constraint89 ))
:extrapreds ((constraint88 ))
:extrapreds ((constraint87 ))
:extrapreds ((constraint86 ))
:extrapreds ((constraint85 ))
:extrapreds ((constraint84 ))
:extrapreds ((constraint83 ))
:extrapreds ((constraint82 ))
:extrapreds ((constraint81 ))
:extrapreds ((constraint80 ))
:extrapreds ((constraint79 ))
:extrapreds ((constraint78 ))
:extrapreds ((constraint77 ))
:extrapreds ((constraint76 ))
:extrapreds ((constraint75 ))
:extrapreds ((constraint74 ))
:extrapreds ((constraint73 ))
:extrapreds ((constraint72 ))
:extrapreds ((constraint71 ))
:extrapreds ((constraint70 ))
:extrapreds ((constraint69 ))
:extrapreds ((constraint68 ))
:extrapreds ((constraint67 ))
:extrapreds ((constraint66 ))
:extrapreds ((constraint65 ))
:extrapreds ((constraint64 ))
:extrapreds ((constraint63 ))
:extrapreds ((constraint62 ))
:extrapreds ((constraint61 ))
:extrapreds ((constraint60 ))
:extrapreds ((constraint59 ))
:extrapreds ((constraint58 ))
:extrapreds ((constraint57 ))
:extrapreds ((constraint56 ))
:extrapreds ((constraint55 ))
:extrapreds ((constraint54 ))
:extrapreds ((constraint53 ))
:extrapreds ((constraint52 ))
:extrapreds ((constraint51 ))
:extrapreds ((constraint50 ))
:extrapreds ((constraint49 ))
:extrapreds ((constraint48 ))
:extrapreds ((constraint47 ))
:extrapreds ((constraint46 ))
:extrapreds ((constraint45 ))
:extrapreds ((constraint44 ))
:extrapreds ((constraint43 ))
:extrapreds ((constraint42 ))
:extrapreds ((constraint41 ))
:extrapreds ((constraint40 ))
:extrapreds ((constraint39 ))
:extrapreds ((constraint38 ))
:extrapreds ((constraint37 ))
:extrapreds ((constraint36 ))
:extrapreds ((constraint35 ))
:extrapreds ((constraint34 ))
:extrapreds ((constraint33 ))
:extrapreds ((constraint32 ))
:extrapreds ((constraint31 ))
:extrapreds ((constraint30 ))
:extrapreds ((constraint29 ))
:extrapreds ((constraint28 ))
:extrapreds ((constraint27 ))
:extrapreds ((constraint26 ))
:extrapreds ((constraint25 ))
:extrapreds ((constraint24 ))
:extrapreds ((constraint23 ))
:extrapreds ((constraint22 ))
:extrapreds ((constraint21 ))
:extrapreds ((constraint20 ))
:extrapreds ((constraint19 ))
:extrapreds ((constraint18 ))
:extrapreds ((constraint17 ))
:extrapreds ((constraint16 ))
:extrapreds ((constraint15 ))
:extrapreds ((constraint14 ))
:extrapreds ((constraint13 ))
:extrapreds ((constraint12 ))
:extrapreds ((constraint11 ))
:extrapreds ((constraint10 ))
:extrapreds ((constraint9 ))
:extrapreds ((constraint8 ))
:extrapreds ((constraint7 ))
:extrapreds ((constraint6 ))
:extrapreds ((constraint5 ))
:extrapreds ((constraint4 ))
:extrapreds ((constraint3 ))
:extrapreds ((constraint2 ))
:extrapreds ((constraint1 ))
:extrapreds ((constraint0 ))
:formula
(flet ($x600 (and constraint0 constraint1 constraint2 constraint3 constraint4 constraint5 constraint6 constraint7 constraint8 constraint9 constraint10 constraint11 constraint12 constraint13 constraint14 constraint15 constraint16 constraint17 constraint18 constraint19 constraint20 constraint21 constraint22 constraint23 constraint24 constraint25 constraint26 constraint27 constraint28 constraint29 constraint30 constraint31 constraint32 constraint33 constraint34 constraint35 constraint36 constraint37 constraint38 constraint39 constraint40 constraint41 constraint42 constraint43 constraint44 constraint45 constraint46 constraint47 constraint48 constraint49 constraint50 constraint51 constraint52 constraint53 constraint54 constraint55 constraint56 constraint57 constraint58 constraint59 constraint60 constraint61 constraint62 constraint63 constraint64 constraint65 constraint66 constraint67 constraint68 constraint69 constraint70 constraint71 constraint72 constraint73 constraint74 constraint75 constraint76 constraint77 constraint78 constraint79 constraint80 constraint81 constraint82 constraint83 constraint84 constraint85 constraint86 constraint87 constraint88 constraint89 constraint90 constraint91 constraint92 constraint93 constraint94 constraint95 constraint96 constraint97 constraint98 constraint99 constraint100 constraint101 constraint102 constraint103 constraint104 constraint105 constraint106 constraint107 constraint108 constraint109 constraint110 constraint111 constraint112 constraint113 constraint114))
(flet ($x361 (= gtINDEX62 (select gtFIELD__bitsForTID0__gtAGG____anonstruct_D_Work_4 gtINDEX61)))
(flet ($x357 (= gtINDEX60 (select gtFIELD__bitsForTID0__gtAGG____anonstruct_D_Work_4 gtINDEX59)))
(flet ($x353 (= gtINDEX58 (select gtFIELD__bitsForTID0__gtAGG____anonstruct_D_Work_4 gtINDEX57)))
(flet ($x349 (= gtINDEX56 (select gtFIELD__bitsForTID0__gtAGG____anonstruct_D_Work_4 gtINDEX55)))
(flet ($x345 (= gtINDEX54 (select gtFIELD__bitsForTID0__gtAGG____anonstruct_D_Work_4 gtINDEX53)))
(flet ($x341 (= gtINDEX52 (select gtFIELD__bitsForTID0__gtAGG____anonstruct_D_Work_4 gtINDEX51)))
(flet ($x337 (= gtINDEX50 (select gtFIELD__bitsForTID0__gtAGG____anonstruct_D_Work_4 gtINDEX49)))
(flet ($x333 (= gtINDEX48 (select gtFIELD__bitsForTID0__gtAGG____anonstruct_D_Work_4 gtINDEX47)))
(flet ($x324 (= gtINDEX41 (select gtFIELD__bitsForTID0__gtAGG____anonstruct_D_Work_4 gtINDEX40)))
(flet ($x320 (= gtINDEX39 (select gtFIELD__bitsForTID0__gtAGG____anonstruct_D_Work_4 gtINDEX38)))
(flet ($x316 (= gtINDEX37 (select gtFIELD__bitsForTID0__gtAGG____anonstruct_D_Work_4 gtINDEX36)))
(flet ($x312 (= gtINDEX35 (select gtFIELD__bitsForTID0__gtAGG____anonstruct_D_Work_4 gtINDEX34)))
(flet ($x308 (= gtINDEX33 (select gtFIELD__bitsForTID0__gtAGG____anonstruct_D_Work_4 gtINDEX32)))
(flet ($x304 (= gtINDEX31 (select gtFIELD__bitsForTID0__gtAGG____anonstruct_D_Work_4 gtINDEX30)))
(flet ($x300 (= gtINDEX29 (select gtFIELD__bitsForTID0__gtAGG____anonstruct_D_Work_4 gtINDEX28)))
(flet ($x293 (= gtINDEX24 (select gtFIELD__bitsForTID0__gtAGG____anonstruct_D_Work_4 gtINDEX23)))
(flet ($x287 (= gtINDEX20 (select gtFIELD__bitsForTID0__gtAGG____anonstruct_D_Work_4 gtINDEX19)))
(flet ($x281 (= gtINDEX16 (select gtFIELD__bitsForTID0__gtAGG____anonstruct_D_Work_4 gtINDEX15)))
(flet ($x277 (= gtINDEX14 (select gtFIELD__bitsForTID0__gtAGG____anonstruct_D_Work_4 gtINDEX13)))
(flet ($x273 (= gtINDEX12 (select gtFIELD__bitsForTID0__gtAGG____anonstruct_D_Work_4 gtINDEX11)))
(flet ($x256 (= (select gtFIELD__sh_rst__gtAGG____anonstruct_D_Work_4 gtINDEX69) bv1[32]))
(flet ($x252 (= (select gtFIELD__sent__gtAGG____anonstruct_D_Work_4 gtINDEX68) bv3[32]))
(flet ($x247 (= (select gtFIELD__sent__gtAGG____anonstruct_D_Work_4 gtINDEX67) bv2[32]))
(flet ($x243 (= (select gtFIELD__sent__gtAGG____anonstruct_D_Work_4 gtINDEX66) bv1[32]))
(flet ($x239 (= (select gtFIELD__sent__gtAGG____anonstruct_D_Work_4 gtINDEX65) (bvmul bv4294967295[32] bv1[32])))
(flet ($x234 (= (select gtFIELD__sent__gtAGG____anonstruct_D_Work_4 gtINDEX64) bv9[32]))
(flet ($x229 (= (select gtFIELD__sent__gtAGG____anonstruct_D_Work_4 gtINDEX63) bv4[32]))
(let (?x224 (zero_extend[31] (select gtFIELD__is_Eng__gtAGG____anonstruct_bitsForTID0_5 gtINDEX62)))
(let (?x218 (select gtFIELD__is_active_Eng__gtAGG____anonstruct_bitsForTID0_5 gtINDEX60))
(let (?x158 (extract[1:0] bv0[32]))
(let (?x215 (store gtFIELD__is_PURI__gtAGG____anonstruct_bitsForTID0_5 gtINDEX58 ?x158))
(flet ($x440 (iff constraint35 (= gtFIELD__is_PURI__gtAGG____anonstruct_bitsForTID0_5_1_ ?x215)))
(let (?x210 (select gtFIELD__is_PURI__gtAGG____anonstruct_bitsForTID0_5 gtINDEX56))
(let (?x205 (select gtFIELD__is_PURI__gtAGG____anonstruct_bitsForTID0_5 gtINDEX54))
(let (?x200 (select gtFIELD__is_active_PURI__gtAGG____anonstruct_bitsForTID0_5 gtINDEX52))
(let (?x194 (select gtFIELD__is_active_PVRP__gtAGG____anonstruct_bitsForTID0_5 gtINDEX50))
(let (?x191 (store gtFIELD__is_PPVARP__gtAGG____anonstruct_bitsForTID0_5 gtINDEX48 (extract[1:0] bv1[32])))
(flet ($x430 (iff constraint30 (= gtFIELD__is_PPVARP__gtAGG____anonstruct_bitsForTID0_5_1_ ?x191)))
(let (?x187 (bvadd (select gtFIELD__n_t_b__gtAGG____anonstruct_D_Work_4 gtINDEX45) (select gtFIELD__ARPd__gtAGG____anonstruct_D_Work_4 gtINDEX46)))
(let (?x182 (select gtFIELD__temporalCounter_i3__gtAGG____anonstruct_D_Work_4 gtINDEX44))
(flet ($x180 (= (select gtFIELD__comm__gtAGG____anonstruct_D_Work_4 gtINDEX43) bv0[32]))
(flet ($x177 (= (select gtFIELD__sent__gtAGG____anonstruct_D_Work_4 gtINDEX42) bv0[32]))
(let (?x172 (select gtFIELD__is_PPVARP__gtAGG____anonstruct_bitsForTID0_5 gtINDEX41))
(let (?x167 (select gtFIELD__is_PPVARP__gtAGG____anonstruct_bitsForTID0_5 gtINDEX39))
(let (?x162 (select gtFIELD__is_active_PPVARP__gtAGG____anonstruct_bitsForTID0_5 gtINDEX37))
(let (?x159 (store gtFIELD__is_PLRI__gtAGG____anonstruct_bitsForTID0_5 gtINDEX35 ?x158))
(flet ($x416 (iff constraint23 (= gtFIELD__is_PLRI__gtAGG____anonstruct_bitsForTID0_5_1_ ?x159)))
(let (?x153 (select gtFIELD__is_PLRI__gtAGG____anonstruct_bitsForTID0_5 gtINDEX33))
(let (?x148 (select gtFIELD__is_PLRI__gtAGG____anonstruct_bitsForTID0_5 gtINDEX31))
(let (?x143 (select gtFIELD__is_active_PLRI__gtAGG____anonstruct_bitsForTID0_5 gtINDEX29))
(let (?x136 (bvadd (select gtFIELD__n_t__gtAGG____anonstruct_D_Work_4 gtINDEX26) (select gtFIELD__AVId__gtAGG____anonstruct_D_Work_4 gtINDEX27)))
(let (?x131 (select gtFIELD__temporalCounter_i1__gtAGG____anonstruct_D_Work_4_1_ gtINDEX25))
(let (?x128 (zero_extend[31] (select gtFIELD__URIex__gtAGG____anonstruct_bitsForTID0_5 gtINDEX24)))
(flet ($x125 (= (select gtFIELD__comm__gtAGG____anonstruct_D_Work_4 gtINDEX22) bv0[32]))
(flet ($x122 (= (select gtFIELD__sent__gtAGG____anonstruct_D_Work_4 gtINDEX21) bv0[32]))
(let (?x117 (zero_extend[31] (select gtFIELD__URIex__gtAGG____anonstruct_bitsForTID0_5 gtINDEX20)))
(flet ($x114 (= (select gtFIELD__comm__gtAGG____anonstruct_D_Work_4 gtINDEX18) bv0[32]))
(flet ($x111 (= (select gtFIELD__sent__gtAGG____anonstruct_D_Work_4 gtINDEX17) bv0[32]))
(let (?x105 (select gtFIELD__is_PAVI__gtAGG____anonstruct_bitsForTID0_5 gtINDEX16))
(let (?x100 (select gtFIELD__is_PAVI__gtAGG____anonstruct_bitsForTID0_5 gtINDEX14))
(let (?x94 (select gtFIELD__is_active_PAVI__gtAGG____anonstruct_bitsForTID0_5 gtINDEX12))
(let (?x89 (select gtFIELD__temporalCounter_i5__gtAGG____anonstruct_D_Work_4 gtINDEX9))
(let (?x91 (store gtFIELD__temporalCounter_i5__gtAGG____anonstruct_D_Work_4 gtINDEX10 (bvadd ?x89 bv1[32])))
(flet ($x386 (iff constraint8 (= gtFIELD__temporalCounter_i5__gtAGG____anonstruct_D_Work_4_1_ ?x91)))
(let (?x85 (select gtFIELD__temporalCounter_i5__gtAGG____anonstruct_D_Work_4 gtINDEX8))
(let (?x80 (select gtFIELD__temporalCounter_i4__gtAGG____anonstruct_D_Work_4 gtINDEX6))
(let (?x82 (store gtFIELD__temporalCounter_i4__gtAGG____anonstruct_D_Work_4 gtINDEX7 (bvadd ?x80 bv1[32])))
(flet ($x382 (iff constraint6 (= gtFIELD__temporalCounter_i4__gtAGG____anonstruct_D_Work_4_1_ ?x82)))
(let (?x76 (select gtFIELD__temporalCounter_i4__gtAGG____anonstruct_D_Work_4 gtINDEX5))
(let (?x72 (select gtFIELD__temporalCounter_i3__gtAGG____anonstruct_D_Work_4 gtINDEX4))
(let (?x68 (select gtFIELD__temporalCounter_i2__gtAGG____anonstruct_D_Work_4 gtINDEX3))
(let (?x62 (select gtFIELD__temporalCounter_i1__gtAGG____anonstruct_D_Work_4 gtINDEX1))
(let (?x65 (store gtFIELD__temporalCounter_i1__gtAGG____anonstruct_D_Work_4 gtINDEX2 (bvadd ?x62 bv1[32])))
(flet ($x374 (iff constraint2 (= gtFIELD__temporalCounter_i1__gtAGG____anonstruct_D_Work_4_1_ ?x65)))
(let (?x57 (select gtFIELD__temporalCounter_i1__gtAGG____anonstruct_D_Work_4 gtINDEX0))
(flet ($x599 (and (iff constraint0 (= sfEvent_ bv8[32])) (iff constraint1 (bvult ?x57 bv4294967295[32])) $x374 (iff constraint3 (not (bvult ?x68 bv4294967295[32]))) (iff constraint4 (not (bvult ?x72 bv4294967295[32]))) (iff constraint5 (bvult ?x76 bv4294967295[32])) $x382 (iff constraint7 (bvult ?x85 bv4294967295[32])) $x386 (iff constraint9 (not (= (zero_extend[31] ?x94) bv0[32]))) (iff constraint10 (not (= (zero_extend[29] ?x100) bv1[32]))) (iff constraint11 (= (zero_extend[29] ?x105) bv2[32])) (iff constraint12 $x111) (iff constraint13 $x114) (iff constraint14 (not (= ?x117 bv0[32]))) (iff constraint15 $x122) (iff constraint16 $x125) (iff constraint17 (= ?x128 bv1[32])) (iff constraint18 (not (= ?x131 ?x136))) (iff constraint19 (not (= sfEvent_ bv5[32]))) (iff constraint20 (not (= (zero_extend[31] ?x143) bv0[32]))) (iff constraint21 (not (= (zero_extend[30] ?x148) bv1[32]))) (iff constraint22 (not (= (zero_extend[30] ?x153) bv2[32]))) $x416 (iff constraint24 (not (= (zero_extend[31] ?x162) bv0[32]))) (iff constraint25 (not (= (zero_extend[30] ?x167) bv1[32]))) (iff constraint26 (= (zero_extend[30] ?x172) bv2[32])) (iff constraint27 $x177) (iff constraint28 $x180) (iff constraint29 (= ?x182 ?x187)) $x430 (iff constraint31 (not (not (= (zero_extend[31] ?x194) bv0[32])))) (iff constraint32 (not (= (zero_extend[31] ?x200) bv0[32]))) (iff constraint33 (not (= (zero_extend[30] ?x205) bv1[32]))) (iff constraint34 (not (= (zero_extend[30] ?x210) bv2[32]))) $x440 (iff constraint36 (not (= (zero_extend[31] ?x218) bv0[32]))) (iff constraint37 (= ?x224 bv1[32])) (iff constraint38 (not $x229)) (iff constraint39 (not $x234)) (iff constraint40 (not $x239)) (iff constraint41 (not $x243)) (iff constraint42 (not $x247)) (iff constraint43 (not $x252)) (iff constraint44 (not $x256)) (iff constraint45 (= gtINDEX0 gtAGG__rtDWork)) (iff constraint46 (= gtINDEX1 gtAGG__rtDWork)) (iff constraint47 (= gtINDEX2 gtAGG__rtDWork)) (iff constraint48 (= gtINDEX3 gtAGG__rtDWork)) (iff constraint49 (= gtINDEX4 gtAGG__rtDWork)) (iff constraint50 (= gtINDEX5 gtAGG__rtDWork)) (iff constraint51 (= gtINDEX6 gtAGG__rtDWork)) (iff constraint52 (= gtINDEX7 gtAGG__rtDWork)) (iff constraint53 (= gtINDEX8 gtAGG__rtDWork)) (iff constraint54 (= gtINDEX9 gtAGG__rtDWork)) (iff constraint55 (= gtINDEX10 gtAGG__rtDWork)) (iff constraint56 (= gtINDEX11 gtAGG__rtDWork)) (iff constraint57 $x273) (iff constraint58 (= gtINDEX13 gtAGG__rtDWork)) (iff constraint59 $x277) (iff constraint60 (= gtINDEX15 gtAGG__rtDWork)) (iff constraint61 $x281) (iff constraint62 (= gtINDEX17 gtAGG__rtDWork)) (iff constraint63 (= gtINDEX18 gtAGG__rtDWork)) (iff constraint64 (= gtINDEX19 gtAGG__rtDWork)) (iff constraint65 $x287) (iff constraint66 (= gtINDEX21 gtAGG__rtDWork)) (iff constraint67 (= gtINDEX22 gtAGG__rtDWork)) (iff constraint68 (= gtINDEX23 gtAGG__rtDWork)) (iff constraint69 $x293) (iff constraint70 (= gtINDEX25 gtAGG__rtDWork)) (iff constraint71 (= gtINDEX26 gtAGG__rtDWork)) (iff constraint72 (= gtINDEX27 gtAGG__rtDWork)) (iff constraint73 (= gtINDEX28 gtAGG__rtDWork)) (iff constraint74 $x300) (iff constraint75 (= gtINDEX30 gtAGG__rtDWork)) (iff constraint76 $x304) (iff constraint77 (= gtINDEX32 gtAGG__rtDWork)) (iff constraint78 $x308) (iff constraint79 (= gtINDEX34 gtAGG__rtDWork)) (iff constraint80 $x312) (iff constraint81 (= gtINDEX36 gtAGG__rtDWork)) (iff constraint82 $x316) (iff constraint83 (= gtINDEX38 gtAGG__rtDWork)) (iff constraint84 $x320) (iff constraint85 (= gtINDEX40 gtAGG__rtDWork)) (iff constraint86 $x324) (iff constraint87 (= gtINDEX42 gtAGG__rtDWork)) (iff constraint88 (= gtINDEX43 gtAGG__rtDWork)) (iff constraint89 (= gtINDEX44 gtAGG__rtDWork)) (iff constraint90 (= gtINDEX45 gtAGG__rtDWork)) (iff constraint91 (= gtINDEX46 gtAGG__rtDWork)) (iff constraint92 (= gtINDEX47 gtAGG__rtDWork)) (iff constraint93 $x333) (iff constraint94 (= gtINDEX49 gtAGG__rtDWork)) (iff constraint95 $x337) (iff constraint96 (= gtINDEX51 gtAGG__rtDWork)) (iff constraint97 $x341) (iff constraint98 (= gtINDEX53 gtAGG__rtDWork)) (iff constraint99 $x345) (iff constraint100 (= gtINDEX55 gtAGG__rtDWork)) (iff constraint101 $x349) (iff constraint102 (= gtINDEX57 gtAGG__rtDWork)) (iff constraint103 $x353) (iff constraint104 (= gtINDEX59 gtAGG__rtDWork)) (iff constraint105 $x357) (iff constraint106 (= gtINDEX61 gtAGG__rtDWork)) (iff constraint107 $x361) (iff constraint108 (= gtINDEX63 gtAGG__rtDWork)) (iff constraint109 (= gtINDEX64 gtAGG__rtDWork)) (iff constraint110 (= gtINDEX65 gtAGG__rtDWork)) (iff constraint111 (= gtINDEX66 gtAGG__rtDWork)) (iff constraint112 (= gtINDEX67 gtAGG__rtDWork)) (iff constraint113 (= gtINDEX68 gtAGG__rtDWork)) (iff constraint114 (= gtINDEX69 gtAGG__rtDWork))))
(and $x599 $x600))))))))))))))))))))))))))))))))))))))))))))))))))))))))))))))))))))))))))))))
)
